c Result of efficient AIG-to-CNF conversion using package CNF
p cnf 416 1439
-2 -3 -310 0
-2 3 310 0
2 3 -310 0
2 -3 310 0
3 379 -380 -288 0
3 379 380 -4 0
-3 -379 0
-3 -380 288 0
-3 380 4 0
-4 -381 260 0
-4 381 5 231 0
4 381 -5 0
4 -381 -260 0
4 381 -231 0
5 382 383 -196 0
5 382 -383 -6 0
-5 -382 0
-5 -383 6 0
-5 383 196 0
6 411 -7 157 0
6 -411 157 -168 0
-6 -157 0
-6 -411 168 0
-6 411 7 0
7 412 -8 0
7 -412 -132 0
-7 -412 132 0
-7 412 8 0
8 413 -9 0
8 -413 -103 0
-8 -413 103 0
-8 413 9 0
9 414 -10 0
9 -414 -77 0
-9 -414 77 0
-9 414 10 0
10 415 -11 0
10 -415 -50 0
-10 -415 50 0
-10 415 11 0
11 -379 12 -38 0
11 379 12 -23 0
-11 -12 0
-11 -379 38 0
-11 379 23 0
-12 13 19 21 22 0
12 -22 0
12 -13 0
12 -21 0
12 -19 0
-13 376 377 14 16 0
13 -376 0
13 -16 0
13 -14 0
13 -377 0
-14 368 374 375 15 0
14 -15 0
14 -375 0
14 -368 0
14 -374 0
-15 372 373 378 0
15 -372 0
15 -378 0
15 -373 0
-16 369 370 371 17 0
16 -17 0
16 -371 0
16 -369 0
16 -370 0
-17 364 365 18 0
17 -18 0
17 -365 0
17 -364 0
-18 360 361 366 367 0
18 -367 0
18 -366 0
18 -360 0
18 -361 0
-19 358 362 363 20 0
19 -20 0
19 -363 0
19 -358 0
19 -362 0
-20 356 357 0
20 -356 0
20 -357 0
-21 352 359 0
21 -352 0
21 -359 0
-22 353 354 355 0
22 -353 0
22 -355 0
22 -354 0
-23 380 24 0
-23 -380 31 0
23 -380 -31 0
23 380 -24 0
-24 381 25 0
-24 -381 28 0
24 -381 -28 0
24 381 -25 0
-25 382 27 0
-25 -382 26 0
25 -382 -26 0
25 382 -27 0
26 -357 -383 0
26 -356 383 0
-26 356 383 0
-26 357 -383 0
27 -355 -383 0
27 -354 383 0
-27 354 383 0
-27 355 -383 0
28 382 -29 0
28 -382 -30 0
-28 -382 30 0
-28 382 29 0
29 -359 -383 0
29 -358 383 0
-29 358 383 0
-29 359 -383 0
30 -361 -383 0
30 -360 383 0
-30 360 383 0
-30 361 -383 0
31 381 -32 0
31 -381 -35 0
-31 -381 35 0
-31 381 32 0
32 382 -33 0
32 -382 -34 0
-32 -382 34 0
-32 382 33 0
33 -363 -383 0
33 -362 383 0
-33 362 383 0
-33 363 -383 0
34 -365 -383 0
34 -364 383 0
-34 364 383 0
-34 365 -383 0
35 382 -36 0
35 -382 -37 0
-35 -382 37 0
-35 382 36 0
36 -367 -383 0
36 -366 383 0
-36 366 383 0
-36 367 -383 0
37 -369 -383 0
37 -368 383 0
-37 368 383 0
-37 369 -383 0
38 380 -39 0
38 -380 -46 0
-38 -380 46 0
-38 380 39 0
39 381 -40 0
39 -381 -43 0
-39 -381 43 0
-39 381 40 0
40 382 -41 0
40 -382 -42 0
-40 -382 42 0
-40 382 41 0
41 -371 -383 0
41 -370 383 0
-41 370 383 0
-41 371 -383 0
42 -373 -383 0
42 -372 383 0
-42 372 383 0
-42 373 -383 0
43 382 -44 0
43 -382 -45 0
-43 -382 45 0
-43 382 44 0
44 -375 -383 0
44 -374 383 0
-44 374 383 0
-44 375 -383 0
45 -377 -383 0
45 -376 383 0
-45 376 383 0
-45 377 -383 0
46 381 -47 0
46 -381 382 -383 0
-46 -381 -382 0
-46 381 47 0
-46 -381 383 0
47 382 -48 0
47 -382 -49 0
-47 -382 49 0
-47 382 48 0
48 -379 -383 0
48 -378 383 0
-48 378 383 0
-48 379 -383 0
49 -381 -383 0
49 -380 383 0
-49 380 383 0
-49 381 -383 0
50 -379 12 -66 0
50 379 12 -51 0
-50 -12 0
-50 -379 66 0
-50 379 51 0
-51 380 52 0
-51 -380 59 0
51 -380 -59 0
51 380 -52 0
-52 381 53 0
-52 -381 56 0
52 -381 -56 0
52 381 -53 0
-53 382 55 0
-53 -382 54 0
53 -382 -54 0
53 382 -55 0
54 -358 -383 0
54 -357 383 0
-54 357 383 0
-54 358 -383 0
55 -356 -383 0
55 -355 383 0
-55 355 383 0
-55 356 -383 0
56 382 -57 0
56 -382 -58 0
-56 -382 58 0
-56 382 57 0
57 -360 -383 0
57 -359 383 0
-57 359 383 0
-57 360 -383 0
58 -362 -383 0
58 -361 383 0
-58 361 383 0
-58 362 -383 0
59 381 -60 0
59 -381 -63 0
-59 -381 63 0
-59 381 60 0
60 382 -61 0
60 -382 -62 0
-60 -382 62 0
-60 382 61 0
61 -364 -383 0
61 -363 383 0
-61 363 383 0
-61 364 -383 0
62 -366 -383 0
62 -365 383 0
-62 365 383 0
-62 366 -383 0
63 382 -64 0
63 -382 -65 0
-63 -382 65 0
-63 382 64 0
64 -368 -383 0
64 -367 383 0
-64 367 383 0
-64 368 -383 0
65 -370 -383 0
65 -369 383 0
-65 369 383 0
-65 370 -383 0
66 380 -67 0
66 -380 -74 0
-66 -380 74 0
-66 380 67 0
67 381 -68 0
67 -381 -71 0
-67 -381 71 0
-67 381 68 0
68 382 -69 0
68 -382 -70 0
-68 -382 70 0
-68 382 69 0
69 -372 -383 0
69 -371 383 0
-69 371 383 0
-69 372 -383 0
70 -374 -383 0
70 -373 383 0
-70 373 383 0
-70 374 -383 0
71 382 -72 0
71 -382 -73 0
-71 -382 73 0
-71 382 72 0
72 -376 -383 0
72 -375 383 0
-72 375 383 0
-72 376 -383 0
73 -378 -383 0
73 -377 383 0
-73 377 383 0
-73 378 -383 0
74 381 -75 0
-74 -381 0
-74 75 0
75 -381 -382 0
75 382 -76 0
75 -382 -383 0
-75 382 76 0
-75 381 -382 383 0
76 -380 -383 0
76 -379 383 0
-76 379 383 0
-76 380 -383 0
77 415 -78 0
77 -415 -91 0
-77 -415 91 0
-77 415 78 0
78 -379 12 -86 0
78 379 12 -79 0
-78 -12 0
-78 -379 86 0
-78 379 79 0
-79 380 80 0
-79 -380 83 0
79 -380 -83 0
79 380 -80 0
-80 381 82 0
-80 -381 81 0
80 -381 -81 0
80 381 -82 0
81 382 -30 0
81 -382 -33 0
-81 -382 33 0
-81 382 30 0
82 382 -26 0
82 -382 -29 0
-82 -382 29 0
-82 382 26 0
83 381 -84 0
83 -381 -85 0
-83 -381 85 0
-83 381 84 0
84 382 -34 0
84 -382 -36 0
-84 -382 36 0
-84 382 34 0
85 382 -37 0
85 -382 -41 0
-85 -382 41 0
-85 382 37 0
86 380 -87 0
86 -380 -90 0
-86 -380 90 0
-86 380 87 0
87 381 -88 0
87 -381 -89 0
-87 -381 89 0
-87 381 88 0
88 382 -42 0
88 -382 -44 0
-88 -382 44 0
-88 382 42 0
89 382 -45 0
89 -382 -48 0
-89 -382 48 0
-89 382 45 0
90 381 -382 0
90 -380 381 383 0
-90 -381 0
-90 382 -383 0
-90 380 382 0
91 -379 12 -99 0
91 379 12 -92 0
-91 -12 0
-91 -379 99 0
-91 379 92 0
92 380 -93 0
92 -380 -96 0
-92 -380 96 0
-92 380 93 0
93 381 -94 0
93 -381 -95 0
-93 -381 95 0
-93 381 94 0
94 382 -54 0
94 -382 -57 0
-94 -382 57 0
-94 382 54 0
95 382 -58 0
95 -382 -61 0
-95 -382 61 0
-95 382 58 0
96 381 -97 0
96 -381 -98 0
-96 -381 98 0
-96 381 97 0
97 382 -62 0
97 -382 -64 0
-97 -382 64 0
-97 382 62 0
98 382 -65 0
98 -382 -69 0
-98 -382 69 0
-98 382 65 0
99 380 -100 0
-99 -380 0
-99 100 0
100 381 -101 0
100 -381 -102 0
-100 -381 102 0
-100 381 101 0
101 382 -70 0
101 -382 -72 0
-101 -382 72 0
-101 382 70 0
102 382 -73 0
102 -382 -76 0
-102 -382 76 0
-102 382 73 0
103 414 -104 0
103 -414 -118 0
-103 -414 118 0
-103 414 104 0
104 415 -105 0
104 -415 -112 0
-104 -415 112 0
-104 415 105 0
105 -379 12 -109 0
105 379 12 -106 0
-105 -12 0
-105 -379 109 0
-105 379 106 0
-106 380 107 0
-106 -380 108 0
106 -380 -108 0
106 380 -107 0
-107 -381 32 0
-107 381 28 0
107 381 -28 0
107 -381 -32 0
108 381 -35 0
108 -381 -40 0
-108 -381 40 0
-108 381 35 0
109 380 -110 0
109 -380 -111 0
-109 -380 111 0
-109 380 110 0
110 381 -43 0
110 -381 -47 0
-110 -381 47 0
-110 381 43 0
111 381 382 -383 0
-111 383 0
-111 -382 0
-111 -381 0
112 -379 12 -116 0
112 379 12 -113 0
-112 -12 0
-112 -379 116 0
-112 379 113 0
113 380 -114 0
113 -380 -115 0
-113 -380 115 0
-113 380 114 0
114 381 -56 0
114 -381 -60 0
-114 -381 60 0
-114 381 56 0
115 381 -63 0
115 -381 -68 0
-115 -381 68 0
-115 381 63 0
116 380 -117 0
-116 -380 0
-116 117 0
117 -381 -382 0
117 381 -71 0
117 -381 -76 0
-117 381 71 0
-117 -381 382 76 0
118 415 -119 0
118 -415 -126 0
-118 -415 126 0
-118 415 119 0
119 -379 12 -123 0
119 379 12 -120 0
-119 -12 0
-119 -379 123 0
-119 379 120 0
120 380 -121 0
120 -380 -122 0
-120 -380 122 0
-120 380 121 0
121 381 -81 0
121 -381 -84 0
-121 -381 84 0
-121 381 81 0
122 381 -85 0
122 -381 -88 0
-122 -381 88 0
-122 381 85 0
123 380 -124 0
-123 -380 0
-123 124 0
124 381 -89 0
124 -381 -125 0
-124 -381 125 0
-124 381 89 0
-125 381 382 -383 0
-125 380 382 383 0
125 -382 0
125 -380 383 0
125 -381 -383 0
126 -379 12 -130 0
126 379 12 -127 0
-126 -12 0
-126 -379 130 0
-126 379 127 0
127 380 -128 0
127 -380 -129 0
-127 -380 129 0
-127 380 128 0
128 381 -95 0
128 -381 -97 0
-128 -381 97 0
-128 381 95 0
129 381 -98 0
129 -381 -101 0
-129 -381 101 0
-129 381 98 0
130 380 -131 0
-130 -380 0
-130 131 0
-131 -381 -382 0
-131 381 102 0
-131 -381 -383 0
131 381 -102 0
131 -381 382 383 0
132 413 -133 0
132 -413 -147 0
-132 -413 147 0
-132 413 133 0
133 414 -134 0
133 -414 -141 0
-133 -414 141 0
-133 414 134 0
134 415 -135 0
134 -415 -138 0
-134 -415 138 0
-134 415 135 0
135 -379 12 -137 0
135 379 12 -136 0
-135 -12 0
-135 -379 137 0
-135 379 136 0
136 380 -31 0
136 -380 -39 0
-136 -380 39 0
-136 380 31 0
137 380 -46 0
-137 -380 0
-137 46 0
138 -379 12 -140 0
138 379 12 -139 0
-138 -12 0
-138 -379 140 0
-138 379 139 0
139 380 -59 0
139 -380 -67 0
-139 -380 67 0
-139 380 59 0
140 380 -74 0
-140 -380 0
-140 74 0
141 415 -142 0
141 -415 -145 0
-141 -415 145 0
-141 415 142 0
142 -379 12 -144 0
142 379 12 -143 0
-142 -12 0
-142 -379 144 0
-142 379 143 0
143 380 -83 0
143 -380 -87 0
-143 -380 87 0
-143 380 83 0
144 380 381 -382 0
-144 382 0
-144 -381 0
-144 -380 0
145 380 -96 146 0
145 -380 -100 146 0
-145 -146 0
-145 -380 100 0
-145 380 96 0
-146 379 12 0
146 -379 0
146 -12 0
147 414 -148 0
147 -414 -153 0
-147 -414 153 0
-147 414 148 0
148 415 -149 0
148 -415 -152 0
-148 -415 152 0
-148 415 149 0
149 -379 12 -151 0
149 379 12 -150 0
-149 -12 0
-149 -379 151 0
-149 379 150 0
150 380 -108 0
150 -380 -110 0
-150 -380 110 0
-150 380 108 0
151 380 381 382 -383 0
-151 383 0
-151 -382 0
-151 -380 0
-151 -381 0
152 380 -115 146 0
152 -380 -117 146 0
-152 -146 0
-152 -380 117 0
-152 380 115 0
153 415 -154 0
153 -415 -155 0
-153 -415 155 0
-153 415 154 0
154 380 -122 146 0
154 -380 -124 146 0
-154 -146 0
-154 -380 124 0
-154 380 122 0
155 146 -156 0
-155 -146 0
-155 156 0
156 380 -129 0
156 -380 -131 0
-156 -380 131 0
-156 380 129 0
-157 158 164 166 167 0
157 -167 0
157 -158 0
157 -166 0
157 -164 0
-158 408 409 159 161 0
158 -408 0
158 -161 0
158 -159 0
158 -409 0
-159 400 406 407 160 0
159 -160 0
159 -407 0
159 -400 0
159 -406 0
-160 404 405 410 0
160 -404 0
160 -410 0
160 -405 0
-161 396 397 162 163 0
161 -396 0
161 -163 0
161 -162 0
161 -397 0
-162 401 402 403 0
162 -401 0
162 -403 0
162 -402 0
-163 392 393 398 399 0
163 -399 0
163 -398 0
163 -392 0
163 -393 0
-164 390 394 395 165 0
164 -165 0
164 -395 0
164 -390 0
164 -394 0
-165 388 389 0
165 -388 0
165 -389 0
-166 384 391 0
166 -384 0
166 -391 0
-167 385 386 387 0
167 -385 0
167 -387 0
167 -386 0
168 412 -169 0
168 -412 -183 0
-168 -412 183 0
-168 412 169 0
169 413 -170 0
169 -413 -176 0
-169 -413 176 0
-169 413 170 0
170 414 -171 0
170 -414 -174 0
-170 -414 174 0
-170 414 171 0
171 415 -172 0
171 -415 -173 0
-171 -415 173 0
-171 415 172 0
172 -38 146 0
-172 38 0
-172 -146 0
173 -66 146 0
-173 66 0
-173 -146 0
174 415 -175 0
-174 -415 0
-174 175 0
175 -86 146 0
-175 86 0
-175 -146 0
176 414 -177 0
176 -414 -180 0
-176 -414 180 0
-176 414 177 0
177 415 -178 0
177 -415 -179 0
-177 -415 179 0
-177 415 178 0
178 -109 146 0
-178 109 0
-178 -146 0
179 -116 146 0
-179 116 0
-179 -146 0
180 415 -181 0
180 -415 -182 0
-180 -415 182 0
-180 415 181 0
181 -123 146 0
-181 123 0
-181 -146 0
182 -130 146 0
-182 130 0
-182 -146 0
183 -413 192 0
183 -184 192 0
-183 -192 0
-183 413 184 0
184 414 -185 0
184 -414 -190 0
-184 -414 190 0
-184 414 185 0
185 -186 188 0
-185 186 0
-185 -188 0
-186 415 187 0
186 -415 0
186 -187 0
187 -137 146 0
-187 137 0
-187 -146 0
188 -415 189 0
-188 415 0
-188 -189 0
189 -140 146 0
-189 140 0
-189 -146 0
190 415 -191 0
-190 -415 0
-190 191 0
191 380 381 -382 146 0
-191 -380 0
-191 -146 0
-191 382 0
-191 -381 0
192 -413 193 0
-192 413 0
-192 -193 0
193 414 -194 0
-193 -414 0
-193 194 0
194 415 -195 0
-194 -415 0
-194 195 0
195 146 -151 0
-195 -146 0
-195 151 0
196 -411 157 -217 0
196 411 157 -197 0
-196 -157 0
-196 -411 217 0
-196 411 197 0
197 412 -198 0
197 -412 -210 0
-197 -412 210 0
-197 412 198 0
198 413 -199 0
198 -413 -207 0
-198 -413 207 0
-198 413 199 0
199 414 -200 0
199 -414 -206 0
-199 -414 206 0
-199 414 200 0
200 -415 -11 0
200 415 12 -201 0
-200 -415 11 0
-200 415 201 0
-200 415 -12 0
-201 -379 156 0
-201 379 202 0
201 -379 -156 0
201 379 -202 0
-202 -380 128 0
-202 380 203 0
202 -380 -128 0
202 380 -203 0
-203 -381 94 0
-203 381 204 0
203 -381 -94 0
203 381 -204 0
-204 382 205 0
-204 -382 55 0
204 -382 -55 0
204 382 -205 0
205 -354 -383 0
205 -353 383 0
-205 353 383 0
-205 354 -383 0
206 415 -50 0
206 -415 -78 0
-206 -415 78 0
-206 415 50 0
207 414 -208 0
207 -414 -209 0
-207 -414 209 0
-207 414 208 0
208 415 -91 0
208 -415 -105 0
-208 -415 105 0
-208 415 91 0
209 415 -112 0
209 -415 -119 0
-209 -415 119 0
-209 415 112 0
210 413 -211 0
210 -413 -214 0
-210 -413 214 0
-210 413 211 0
211 414 -212 0
211 -414 -213 0
-211 -414 213 0
-211 414 212 0
212 415 -126 0
212 -415 -135 0
-212 -415 135 0
-212 415 126 0
213 415 -138 0
213 -415 -142 0
-213 -415 142 0
-213 415 138 0
214 414 -215 0
214 -414 -216 0
-214 -414 216 0
-214 414 215 0
215 415 -145 0
215 -415 -149 0
-215 -415 149 0
-215 415 145 0
216 415 -152 0
216 -415 -154 0
-216 -415 154 0
-216 415 152 0
217 412 -218 0
217 -412 -225 0
-217 -412 225 0
-217 412 218 0
218 413 -219 0
218 -413 -222 0
-218 -413 222 0
-218 413 219 0
219 414 -220 0
219 -414 -221 0
-219 -414 221 0
-219 414 220 0
220 415 -155 0
220 -415 -172 0
-220 -415 172 0
-220 415 155 0
221 415 -173 0
221 -415 -175 0
-221 -415 175 0
-221 415 173 0
222 414 -223 0
222 -414 -224 0
-222 -414 224 0
-222 414 223 0
223 -415 -178 0
-223 415 0
-223 178 0
224 415 -179 0
224 -415 -181 0
-224 -415 181 0
-224 415 179 0
225 413 -226 0
225 -413 -229 0
-225 -413 229 0
-225 413 226 0
226 414 -227 0
226 -414 -228 0
-226 -414 228 0
-226 414 227 0
227 415 -182 0
227 -415 -187 0
-227 -415 187 0
-227 415 182 0
228 415 -189 0
228 -415 -191 0
-228 -415 191 0
-228 415 189 0
229 414 -230 0
-229 -414 0
-229 230 0
230 -415 -195 0
-230 415 0
-230 195 0
231 -382 -383 -246 0
231 -382 383 -232 0
-231 382 0
-231 -383 246 0
-231 383 232 0
232 -411 157 -240 0
232 411 157 -233 0
-232 -157 0
-232 -411 240 0
-232 411 233 0
233 412 -234 0
233 -412 -237 0
-233 -412 237 0
-233 412 234 0
234 413 -235 0
234 -413 -236 0
-234 -413 236 0
-234 413 235 0
235 414 -206 0
235 -414 -208 0
-235 -414 208 0
-235 414 206 0
236 414 -209 0
236 -414 -212 0
-236 -414 212 0
-236 414 209 0
237 413 -238 0
237 -413 -239 0
-237 -413 239 0
-237 413 238 0
238 414 -213 0
238 -414 -215 0
-238 -414 215 0
-238 414 213 0
239 414 -216 0
239 -414 -220 0
-239 -414 220 0
-239 414 216 0
240 412 -241 0
240 -412 -244 0
-240 -412 244 0
-240 412 241 0
241 413 -242 0
241 -413 -243 0
-241 -413 243 0
-241 413 242 0
242 414 -221 0
242 -414 -223 0
-242 -414 223 0
-242 414 221 0
243 414 -224 0
243 -414 -227 0
-243 -414 227 0
-243 414 224 0
244 413 -245 0
-244 -413 0
-244 245 0
245 414 -228 0
245 -414 -230 0
-245 -414 230 0
-245 414 228 0
246 -411 157 -254 0
246 411 157 -247 0
-246 -157 0
-246 -411 254 0
-246 411 247 0
247 412 -248 0
247 -412 -251 0
-247 -412 251 0
-247 412 248 0
248 413 -249 0
248 -413 -250 0
-248 -413 250 0
-248 413 249 0
249 414 -77 0
249 -414 -104 0
-249 -414 104 0
-249 414 77 0
250 414 -118 0
250 -414 -134 0
-250 -414 134 0
-250 414 118 0
251 413 -252 0
251 -413 -253 0
-251 -413 253 0
-251 413 252 0
252 414 -141 0
252 -414 -148 0
-252 -414 148 0
-252 414 141 0
253 414 -153 0
253 -414 -171 0
-253 -414 171 0
-253 414 153 0
254 412 -255 0
254 -412 -258 0
-254 -412 258 0
-254 412 255 0
255 413 -256 0
255 -413 -257 0
-255 -413 257 0
-255 413 256 0
256 414 -174 0
256 -414 -177 0
-256 -414 177 0
-256 414 174 0
257 414 -180 0
257 -414 -185 0
-257 -414 185 0
-257 414 180 0
258 413 -259 0
-258 -413 0
-258 259 0
259 414 -190 0
259 -414 -194 0
-259 -414 194 0
-259 414 190 0
260 382 -261 0
260 -382 -276 0
-260 -382 276 0
-260 382 261 0
261 383 -262 0
261 -383 -269 0
-261 -383 269 0
-261 383 262 0
262 -411 157 -266 0
262 411 157 -263 0
-262 -157 0
-262 -411 266 0
-262 411 263 0
263 412 -264 0
263 -412 -265 0
-263 -412 265 0
-263 412 264 0
264 413 -207 0
264 -413 -211 0
-264 -413 211 0
-264 413 207 0
265 413 -214 0
265 -413 -219 0
-265 -413 219 0
-265 413 214 0
266 412 -267 0
266 -412 -268 0
-266 -412 268 0
-266 412 267 0
267 413 -222 0
267 -413 -226 0
-267 -413 226 0
-267 413 222 0
268 413 -229 0
-268 -413 0
-268 229 0
269 -411 157 -273 0
269 411 157 -270 0
-269 -157 0
-269 -411 273 0
-269 411 270 0
270 412 -271 0
270 -412 -272 0
-270 -412 272 0
-270 412 271 0
271 413 -103 0
271 -413 -133 0
-271 -413 133 0
-271 413 103 0
272 413 -147 0
272 -413 -170 0
-272 -413 170 0
-272 413 147 0
273 412 -274 0
273 -412 -275 0
-273 -412 275 0
-273 412 274 0
274 413 -176 0
274 -413 -184 0
-274 -413 184 0
-274 413 176 0
275 413 -193 0
-275 -413 0
-275 193 0
276 383 -277 0
276 -383 157 -283 0
-276 383 277 0
-276 -383 -157 0
-276 -383 283 0
277 411 157 -280 0
277 -411 157 -278 0
-277 -157 0
-277 -411 278 0
-277 411 280 0
278 412 -279 0
-278 -412 0
-278 279 0
279 413 -243 0
279 -413 -245 0
-279 -413 245 0
-279 413 243 0
280 412 -281 0
280 -412 -282 0
-280 -412 282 0
-280 412 281 0
281 413 -236 0
281 -413 -238 0
-281 -413 238 0
-281 413 236 0
282 413 -239 0
282 -413 -242 0
-282 -413 242 0
-282 413 239 0
-283 -411 -412 0
-283 411 284 0
-283 -411 287 0
283 411 -284 0
283 -411 412 -287 0
-284 -412 286 0
-284 412 285 0
284 412 -285 0
284 -412 -286 0
285 413 -250 0
285 -413 -252 0
-285 -413 252 0
-285 413 250 0
286 413 -253 0
286 -413 -256 0
-286 -413 256 0
-286 413 253 0
287 413 -257 0
287 -413 -259 0
-287 -413 259 0
-287 413 257 0
288 381 -289 0
288 -381 -300 0
-288 -381 300 0
-288 381 289 0
289 382 -290 0
289 -382 -295 0
-289 -382 295 0
-289 382 290 0
290 383 157 -291 0
290 -383 157 -293 0
-290 -157 0
-290 -383 293 0
-290 383 291 0
-291 -411 -412 0
-291 411 292 0
-291 -411 225 0
291 411 -292 0
291 -411 412 -225 0
-292 -412 218 0
-292 412 210 0
292 412 -210 0
292 -412 -218 0
-293 -411 -412 0
-293 411 294 0
-293 -411 183 0
293 411 -294 0
293 -411 412 -183 0
-294 -412 169 0
-294 412 132 0
294 412 -132 0
294 -412 -169 0
295 383 157 -296 0
295 -383 157 -298 0
-295 -157 0
-295 -383 298 0
-295 383 296 0
-296 -411 -412 0
-296 411 297 0
-296 -411 244 0
296 411 -297 0
296 -411 412 -244 0
-297 -412 241 0
-297 412 237 0
297 412 -237 0
297 -412 -241 0
-298 -411 -412 0
-298 411 299 0
-298 -411 258 0
298 411 -299 0
298 -411 412 -258 0
-299 -412 255 0
-299 412 251 0
299 412 -251 0
299 -412 -255 0
300 382 -301 0
300 -382 -306 0
-300 -382 306 0
-300 382 301 0
301 383 157 -302 0
301 -383 157 -304 0
-301 -157 0
-301 -383 304 0
-301 383 302 0
-302 -411 -412 0
-302 411 303 0
-302 -411 268 0
302 411 -303 0
302 -411 412 -268 0
-303 -412 267 0
-303 412 265 0
303 412 -265 0
303 -412 -267 0
-304 -411 -412 0
-304 411 305 0
-304 -411 275 0
304 411 -305 0
304 -411 412 -275 0
-305 -412 274 0
-305 412 272 0
305 412 -272 0
305 -412 -274 0
306 -383 307 -309 0
306 383 307 -308 0
-306 -307 0
-306 -383 309 0
-306 383 308 0
-307 411 157 0
307 -411 0
307 -157 0
-308 412 282 0
-308 -412 279 0
308 -412 -279 0
308 412 -282 0
309 412 -286 0
309 -412 -287 0
-309 -412 287 0
-309 412 286 0
310 -411 157 -345 0
310 411 157 -311 0
-310 -157 0
-310 -411 345 0
-310 411 311 0
-311 412 312 0
-311 -412 332 0
311 -412 -332 0
311 412 -312 0
-312 413 313 0
-312 -413 328 0
312 -413 -328 0
312 413 -313 0
-313 414 314 0
-313 -414 324 0
313 -414 -324 0
313 414 -314 0
-314 415 152 0
-314 -415 315 0
-314 382 415 0
314 -415 -315 0
314 -382 415 -152 0
315 -379 146 0
315 146 -316 319 0
-315 -146 0
-315 379 -319 0
-315 379 316 0
-316 380 -381 91 0
-316 380 381 317 0
316 -380 0
316 -381 -91 0
316 381 -317 0
317 382 -318 0
317 -382 383 -78 0
-317 -382 -383 0
-317 382 318 0
-317 -382 78 0
318 383 -11 0
318 -383 -50 0
-318 -383 50 0
-318 383 11 0
319 -380 -381 321 0
319 -380 381 320 0
-319 380 0
-319 -381 -321 0
-319 381 -320 0
320 383 -142 0
320 -383 -145 0
-320 -383 145 0
-320 383 142 0
321 -322 -323 0
321 382 -322 0
-321 322 0
-321 -382 323 0
-322 382 152 0
322 -382 0
322 -152 0
323 383 -154 0
323 -383 -155 0
-323 -383 155 0
-323 383 154 0
324 -415 -325 0
324 382 415 -322 0
-324 -382 415 0
-324 -415 325 0
-324 415 322 0
325 -381 -326 0
-325 381 0
-325 326 0
326 382 -323 0
326 -382 -327 0
-326 -382 327 0
-326 382 323 0
327 383 -172 0
327 -383 -173 0
-327 -383 173 0
-327 383 172 0
328 414 -329 0
328 -414 -415 -330 0
-328 -414 330 0
-328 414 329 0
-328 -414 415 0
329 -383 415 -172 0
329 -383 -415 -155 0
329 383 415 -155 0
-329 383 -415 0
-329 383 155 0
-329 -415 155 0
-329 -383 415 172 0
330 -380 -381 -331 0
330 -380 381 -326 0
-330 380 0
-330 -381 331 0
-330 381 326 0
331 -383 -179 0
-331 383 0
-331 179 0
332 -413 -339 0
332 413 -333 337 0
-332 413 333 0
-332 -413 339 0
-332 413 -337 0
-333 414 -415 335 0
-333 414 415 334 0
333 -414 0
333 -415 -335 0
333 415 -334 0
334 -383 -155 0
-334 383 0
-334 155 0
335 382 -178 0
335 -382 -336 0
-335 -382 336 0
-335 382 178 0
336 383 -175 0
-336 -383 0
-336 175 0
337 -381 -414 0
337 -414 415 0
337 -414 338 0
-337 414 0
-337 381 -415 -338 0
338 -382 -331 0
338 382 383 -175 0
-338 382 -383 0
-338 -382 331 0
-338 382 175 0
339 -414 -331 0
339 414 415 -340 0
-339 414 -415 0
-339 -414 331 0
-339 414 340 0
340 -380 -381 -343 0
340 -380 381 -341 0
-340 380 0
-340 -381 343 0
-340 381 341 0
341 -181 -342 0
341 382 -342 0
-341 342 0
-341 -382 181 0
-342 382 178 0
342 -382 0
342 -178 0
343 -382 -189 0
343 382 -344 0
-343 382 344 0
-343 -382 189 0
344 383 -182 0
344 -383 -187 0
-344 -383 187 0
-344 383 182 0
345 412 -346 0
345 -412 192 -350 0
-345 -412 -192 0
-345 412 346 0
-345 -412 350 0
346 413 -347 0
346 -413 -349 0
-346 -413 349 0
-346 413 347 0
347 414 -348 0
347 -414 415 -187 0
-347 -414 -415 0
-347 414 348 0
-347 -414 187 0
348 415 -179 0
348 383 -415 -181 0
-348 -383 -415 0
-348 415 179 0
-348 -415 181 0
349 414 415 -344 0
349 -414 -415 -189 0
-349 414 -415 0
-349 -414 415 0
-349 415 344 0
-349 -415 189 0
-350 413 -414 0
-350 413 351 0
350 -413 0
350 414 -351 0
351 415 -189 0
351 383 -415 -191 0
-351 -383 -415 0
-351 415 189 0
-351 -415 191 0
-416 0
2 0

